/*********************************************
 * OPL 22.1.1.0 Data
 * Author: filippostruffi
 * Creation Date: Feb 6, 2025 at 5:12:04 PM
 *********************************************/
 
cost = [90, 28, 28, 28, 28, 28];
time_slots = [
        [1, 1, 0, 0, 0, 0],   
        [1, 1, 1, 0, 0, 0],   
        [0.5, 1, 1, 1, 0, 0], 
        [0.5, 1, 1, 1, 1, 0], 
        [1, 0, 1, 1, 1, 1],   
        [1, 0, 0, 1, 1, 1],   
        [1, 0, 0, 0, 1, 1],   
        [1, 0, 0, 0, 0, 1]];
min_requirements = [10, 12, 14, 16, 18, 17, 15, 10];
